\ENCODING=ISO-8859-1
\Problem name: IloCplex

Maximize
 obj1: - 999999 x1 + 1000000 x2 + x3 + x4 + x5
Subject To
 c1:  3 x1 + 4 x2 + 5 x3 + 8 x4 + 9 x5 <= 10
 c2:  x1 - x2  = 0
 c3:  x1 - x2  = 0
 c4:  x1 - x2  = 0
 c5:  x1 - x2  = 0
 c6:  x1 - x2  = 0
 c7:  x1 - x2  = 0
 c8:  x1 - x2  = 0
 c9:  x1 - x2  = 0
 c10: x1 - x2  = 0
 c11: x1 - x2  = 0
 c12: x1 - x2  = 0
 c13: x1 - x2  = 0
 c14: x1 - x2  = 0
 c15: x1 - x2  = 0
 c16: x1 - x2  = 0
 c17: x1 - x2  = 0
 c18: x1 - x2  = 0
 c19: x1 - x2  = 0
 c20: x1 - x2  = 0
 c21: x1 - x2  = 0
 c22: x1 - x2  = 0
 c23: x1 - x2  = 0
 c24: x1 - x2  = 0
 c25: x1 - x2  = 0
 c26: x1 - x2  = 0
Bounds
 0 <= x1 <= 1
 0 <= x2 <= 1
 0 <= x3 <= 1
 0 <= x4 <= 1
 0 <= x5 <= 1
Binaries
 x1  x2  x3  x4  x5 
End
